51
57
21
17
42
67
6
73
3
46
4
59
69
28
1
36
2
50
0
23
30
7
56
8
14
12
44
38
24
25
62
9
71
11
39
54
49
22
32
68
55
74
45
70
47
20
61
29
27
40
31
72
48
60
15
19
35
75
34
63
26
53
58
33
10
52
13
5
18
37
65
66
64
41
43
